164
1000000
41002
595166
194421
599279
331056
29657
994700
208054
16893
715983
341926
97907
321212
303864
828760
292190
91548
476290
908452
366209
144997
745763
36071
786519
4967
874322
258760
590318
93148
757845
631048
151902
298603
633791
709490
392458
404834
125678
92926
923677
479527
101375
835366
164634
650693
197314
146702
296122
50739
385538
288412
658074
211770
32527
766808
232035
597815
651702
682684
69914
203075
421462
526190
111174
520473
637120
930086
185276
402185
345405
137982
349307
591545
188832
242648
218634
164053
583638
61110
361
641096
72123
364508
354117
217914
55198
794883
10585
202896
958998
400721
135971
668944
247635
685485
358904
379800
42515
80273
254768
285078
937624
79596
108153
230385
666315
256932
123341
204355
8763
72838
35603
98775
175864
610591
125683
855003
743068
227777
785960
210377
876659
183368
76323
575015
173714
74925
67680
969855
767965
45407
614462
560307
111988
214040
30145
606819
62376
290510
153596
523710
242379
224406
368952
185556
328010
444218
582723
236310
90805
510858
696528
5300
473810
84848
805579
631055
749431
417277
915152
248274
35898
171240
71119
